g3 0 1 0	# problem 3083
 243 233 1 0 219	# vars, constraints, objectives, ranges, eqns
 126 0	# nonlinear constraints, objectives
 0 0	# network constraints: nonlinear, linear
 60 0 0	# nonlinear vars in constraints, objectives, both
 0 0 0 1	# linear network variables; functions; arith, flags
 0 0 0 0 0	# discrete variables: binary, integer, nonlinear (b,c,o)
 1001 6	# nonzeros in Jacobian, gradients
 0 0	# max name lengths: constraints, variables
 0 0 0 0 0	# common exprs: b,c,o,c1,o1
b
0 0 1e+06
0 0 1e+06
0 0 1e+06
0 0 1e+06
0 0 1e+06
0 0 1e+06
0 0 1e+06
0 0 1e+06
0 0 1e+06
0 0 1e+06
0 0 1e+06
0 0 1e+06
0 0 1e+06
0 0 1e+06
0 0 1e+06
0 0 1e+06
0 0 1e+06
0 0 1e+06
0 0 1e+06
0 0 1e+06
0 0 1e+06
0 0 1e+06
0 0 1e+06
0 0 1e+06
0 0 1e+06
0 0 1e+06
0 0 1e+06
0 0 1e+06
0 0 1e+06
0 0 1e+06
0 0 1e+06
0 0 1e+06
0 0 1e+06
0 0 1e+06
0 0 1e+06
0 0 1e+06
0 0 1e+06
0 0 1e+06
0 0 1e+06
0 0 1e+06
0 0 1e+06
0 0 1e+06
0 0 1e+06
0 0 1e+06
0 0 1e+06
0 0 1e+06
0 0 1e+06
0 0 1e+06
0 0 1e+06
0 0 1e+06
0 0 1e+06
0 0 1e+06
0 0 1e+06
0 0 1e+06
0 0 1e+06
0 0 1e+06
0 0 1e+06
0 0 1e+06
0 0 1e+06
0 0 1e+06
0 0 1e+06
0 0 1e+06
0 0 1e+06
0 0 1e+06
0 0 1e+06
0 0 1e+06
0 0 1e+06
0 0 1e+06
0 0 1e+06
0 0 1e+06
0 0 1e+06
0 0 1e+06
0 0 1e+06
0 0 1e+06
0 0 1e+06
0 0 1e+06
0 0 1e+06
0 0 1e+06
0 0 1e+06
0 0 1e+06
0 0 1e+06
0 0 1e+06
0 0 1e+06
0 0 1e+06
0 0 1e+06
0 0 1e+06
0 0 1e+06
0 0 1e+06
0 0 1e+06
0 0 1e+06
0 0 1e+06
0 0 1e+06
0 0 1e+06
0 0 1e+06
0 0 1e+06
0 0 1e+06
0 0 1e+06
0 0 1e+06
0 0 1e+06
0 0 1e+06
0 0 1e+06
0 0 1e+06
0 0 1e+06
0 0 1e+06
0 0 1e+06
0 0 1e+06
0 0 1e+06
0 0 1e+06
0 0 1e+06
0 0 1e+06
0 0 1e+06
0 0 1e+06
0 0 1e+06
0 0 1e+06
0 0 1e+06
0 0 1e+06
0 0 1e+06
0 0 1e+06
0 0 1e+06
0 0 1e+06
0 0 1e+06
0 0 1e+06
0 0 1e+06
0 0 1e+06
0 0 1e+06
0 0 1e+06
0 0 1e+06
0 0 1e+06
0 0 1e+06
0 0 1e+06
0 0 1e+06
0 0 1e+06
0 0 1e+06
0 0 1e+06
0 0 1e+06
0 0 1e+06
0 0 1e+06
0 0 1e+06
0 0 1e+06
0 0 1e+06
0 0 1e+06
0 0 1e+06
0 0 1e+06
0 0 1e+06
0 0 1e+06
0 0 1e+06
0 0 1e+06
0 0 1e+06
0 0 1e+06
0 0 1e+06
0 0 1e+06
0 0 1e+06
0 0 1e+06
0 0 1e+06
0 0 1e+06
0 0 1e+06
0 0 1e+06
0 0 1e+06
0 0 1e+06
0 0 1e+06
0 0 1e+06
0 0 1e+06
0 0 1e+06
0 0 1e+06
0 0 1e+06
0 0 1e+06
0 0 1e+06
0 0 1e+06
0 0 1e+06
0 0 1e+06
0 0 1e+06
0 0 1e+06
0 0 1e+06
0 0 1e+06
0 0 1e+06
0 0 1e+06
0 0 1e+06
0 0 1e+06
0 0 1e+06
0 0 1e+06
0 0 1e+06
0 0 1e+06
0 0 1e+06
0 0 1e+06
0 0 1e+06
0 0 1e+06
0 0 1e+06
0 0 1e+06
0 0 1e+06
0 0 1e+06
0 0 1e+06
0 0 1e+06
0 0 1e+06
0 0 1e+06
0 0 1e+06
0 0 1e+06
0 0 1e+06
0 0 1e+06
0 0 1e+06
0 0 1e+06
0 0 1e+06
0 0 1e+06
0 0 1e+06
0 0 1e+06
0 0 1e+06
0 0 1e+06
0 0 1e+06
0 0 1e+06
0 0 1e+06
0 0 1e+06
0 0 1e+06
0 0 1e+06
0 0 1e+06
0 0 1e+06
0 0 1e+06
0 0 1e+06
0 0 1e+06
0 0 1e+06
0 0 1e+06
0 0 1e+06
0 0 1e+06
0 0 1e+06
0 0 1e+06
0 0 1e+06
0 0 1e+06
0 0 1e+06
0 0 1e+06
0 0 1e+06
0 0 1e+06
0 0 1e+06
0 0 1e+06
0 0 1e+06
0 0 1e+06
0 0 1e+06
0 0 1e+06
0 0 1e+06
0 0 1e+06
0 0 1e+06
0 0 1e+06
0 0 1e+06
0 0 1e+06
0 0 1e+06
0 0 1e+06
r
4 0
4 0
4 0
4 0
4 0
4 0
4 0
4 0
4 0
4 0
4 0
4 0
4 0
4 0
4 0
4 0
4 0
4 0
4 0
4 0
4 0
4 0
4 0
4 0
4 0
4 0
4 0
4 0
4 0
4 0
4 0
4 0
4 0
4 0
4 0
4 0
4 0
4 0
4 0
4 0
4 0
4 0
4 0
4 0
4 0
4 0
4 0
4 0
4 0
4 0
4 0
4 0
4 0
4 0
4 0
4 0
4 0
4 0
4 0
4 0
4 0
4 0
4 0
4 0
4 0
4 0
4 0
4 0
4 0
4 0
4 0
4 0
4 0
4 0
4 0
4 0
4 0
4 0
4 0
4 0
4 0
4 0
4 0
4 0
4 0
4 0
4 0
4 0
4 0
4 0
4 0
4 0
4 0
4 0
4 0
4 0
4 0
4 0
4 0
4 0
4 0
4 0
4 0
4 0
4 0
4 0
4 0
4 0
4 0
4 0
4 0
4 0
4 0
4 0
4 0
4 0
4 0
4 0
4 0
4 0
4 0
4 0
4 0
4 0
4 0
4 0
4 -150
4 -270
4 0
4 0
4 0
4 0
4 0
4 0
4 0
4 0
4 0
4 0
4 0
4 0
4 0
4 -31500
4 -105000
4 -29700
4 -37800
4 0
4 0
4 0
4 0
4 0
4 0
4 0
4 0
4 0
4 0
4 0
4 0
4 0
4 0
4 0
4 0
4 0
4 0
4 0
4 0
4 0
4 0
4 0
4 0
4 0
4 0
4 0
4 0
4 0
4 0
4 0
4 0
4 0
4 0
4 0
4 0
4 0
4 0
4 0
4 0
4 0
4 0
4 1
4 1
1 0
1 0
1 0
1 0
1 0
1 0
1 0
1 0
1 0
1 0
1 0
1 0
4 0
4 0
4 0
4 0
4 0
4 0
4 0
4 0
4 0
4 0
4 0
4 0
4 0
4 0
4 0
4 0
4 0
4 0
4 0
4 0
4 0
4 0
4 0
4 0
4 1
4 1
4 1
4 1
4 1
4 1
1 0
1 0
C0
o2
v18
v6
C1
o2
v18
v7
C2
o2
v19
v6
C3
o2
v19
v7
C4
o2
v20
v6
C5
o2
v20
v7
C6
o2
v21
v6
C7
o2
v21
v7
C8
o2
v22
v6
C9
o2
v22
v7
C10
o2
v23
v6
C11
o2
v23
v7
C12
o2
v25
v8
C13
o2
v25
v9
C14
o2
v26
v8
C15
o2
v26
v9
C16
o2
v27
v8
C17
o2
v27
v9
C18
o2
v28
v8
C19
o2
v28
v9
C20
o2
v29
v8
C21
o2
v29
v9
C22
o2
v30
v8
C23
o2
v30
v9
C24
o2
v32
v10
C25
o2
v32
v11
C26
o2
v33
v10
C27
o2
v33
v11
C28
o2
v34
v10
C29
o2
v34
v11
C30
o2
v35
v10
C31
o2
v35
v11
C32
o2
v36
v10
C33
o2
v36
v11
C34
o2
v37
v10
C35
o2
v37
v11
C36
o2
v39
v12
C37
o2
v39
v13
C38
o2
v40
v12
C39
o2
v40
v13
C40
o2
v41
v12
C41
o2
v41
v13
C42
o2
v42
v12
C43
o2
v42
v13
C44
o2
v43
v12
C45
o2
v43
v13
C46
o2
v44
v12
C47
o2
v44
v13
C48
o2
v46
v14
C49
o2
v46
v15
C50
o2
v47
v14
C51
o2
v47
v15
C52
o2
v48
v14
C53
o2
v48
v15
C54
o2
v49
v14
C55
o2
v49
v15
C56
o2
v50
v14
C57
o2
v50
v15
C58
o2
v51
v14
C59
o2
v51
v15
C60
o2
v53
v16
C61
o2
v53
v17
C62
o2
v54
v16
C63
o2
v54
v17
C64
o2
v55
v16
C65
o2
v55
v17
C66
o2
v56
v16
C67
o2
v56
v17
C68
o2
v57
v16
C69
o2
v57
v17
C70
o2
v58
v16
C71
o2
v58
v17
C72
o2
v24
v6
C73
o2
v24
v7
C74
o2
v31
v8
C75
o2
v31
v9
C76
o2
v38
v10
C77
o2
v38
v11
C78
o2
v45
v12
C79
o2
v45
v13
C80
o2
v52
v14
C81
o2
v52
v15
C82
o2
v59
v16
C83
o2
v59
v17
C84
o2
v18
v0
C85
o2
v19
v0
C86
o2
v20
v0
C87
o2
v21
v0
C88
o2
v22
v0
C89
o2
v23
v0
C90
o2
v25
v1
C91
o2
v26
v1
C92
o2
v27
v1
C93
o2
v28
v1
C94
o2
v29
v1
C95
o2
v30
v1
C96
o2
v32
v2
C97
o2
v33
v2
C98
o2
v34
v2
C99
o2
v35
v2
C100
o2
v36
v2
C101
o2
v37
v2
C102
o2
v39
v3
C103
o2
v40
v3
C104
o2
v41
v3
C105
o2
v42
v3
C106
o2
v43
v3
C107
o2
v44
v3
C108
o2
v46
v4
C109
o2
v47
v4
C110
o2
v48
v4
C111
o2
v49
v4
C112
o2
v50
v4
C113
o2
v51
v4
C114
o2
v53
v5
C115
o2
v54
v5
C116
o2
v55
v5
C117
o2
v56
v5
C118
o2
v57
v5
C119
o2
v58
v5
C120
o2
v24
v0
C121
o2
v31
v1
C122
o2
v38
v2
C123
o2
v45
v3
C124
o2
v52
v4
C125
o2
v59
v5
C126
n0
C127
n0
C128
n0
C129
n0
C130
n0
C131
n0
C132
n0
C133
n0
C134
n0
C135
n0
C136
n0
C137
n0
C138
n0
C139
n0
C140
n0
C141
n0
C142
n0
C143
n0
C144
n0
C145
n0
C146
n0
C147
n0
C148
n0
C149
n0
C150
n0
C151
n0
C152
n0
C153
n0
C154
n0
C155
n0
C156
n0
C157
n0
C158
n0
C159
n0
C160
n0
C161
n0
C162
n0
C163
n0
C164
n0
C165
n0
C166
n0
C167
n0
C168
n0
C169
n0
C170
n0
C171
n0
C172
n0
C173
n0
C174
n0
C175
n0
C176
n0
C177
n0
C178
n0
C179
n0
C180
n0
C181
n0
C182
n0
C183
n0
C184
n0
C185
n0
C186
n0
C187
n0
C188
n0
C189
n0
C190
n0
C191
n0
C192
n0
C193
n0
C194
n0
C195
n0
C196
n0
C197
n0
C198
n0
C199
n0
C200
n0
C201
n0
C202
n0
C203
n0
C204
n0
C205
n0
C206
n0
C207
n0
C208
n0
C209
n0
C210
n0
C211
n0
C212
n0
C213
n0
C214
n0
C215
n0
C216
n0
C217
n0
C218
n0
C219
n0
C220
n0
C221
n0
C222
n0
C223
n0
C224
n0
C225
n0
C226
n0
C227
n0
C228
n0
C229
n0
C230
n0
C231
n0
C232
n0
O0 0
n0
k242
11
22
33
44
55
66
75
84
93
102
111
120
129
138
147
156
165
174
178
182
186
190
194
198
202
206
210
214
218
222
226
230
234
238
242
246
250
254
258
262
266
270
274
278
282
286
290
294
298
302
306
310
314
318
322
326
330
334
338
342
345
348
351
354
357
360
363
366
369
372
375
378
381
384
387
390
393
396
399
402
405
408
411
414
417
420
423
426
429
432
435
438
441
444
447
450
453
456
459
462
465
468
471
474
477
480
483
486
489
492
495
498
501
504
507
510
513
516
520
524
528
532
536
540
543
547
551
555
559
563
567
570
574
578
582
586
590
594
597
601
605
609
613
617
621
625
629
633
637
641
645
649
653
657
661
665
669
673
677
681
685
689
693
697
701
705
709
713
717
721
725
729
733
737
741
745
749
753
757
761
765
769
773
777
781
785
789
793
797
801
805
809
813
817
821
825
829
833
837
841
845
849
853
857
861
865
869
873
877
881
885
889
893
897
901
905
909
913
917
921
925
929
933
937
941
945
949
953
957
961
965
968
971
974
977
980
983
986
989
992
995
998
J0 3
6 0
18 0
159 -1
J1 3
7 0
18 0
165 -1
J2 3
6 0
19 0
171 -1
J3 3
7 0
19 0
177 -1
J4 3
6 0
20 0
183 -1
J5 3
7 0
20 0
189 -1
J6 3
6 0
21 0
195 -1
J7 3
7 0
21 0
201 -1
J8 3
6 0
22 0
207 -1
J9 3
7 0
22 0
213 -1
J10 3
6 0
23 0
219 -1
J11 3
7 0
23 0
225 -1
J12 3
8 0
25 0
160 -1
J13 3
9 0
25 0
166 -1
J14 3
8 0
26 0
172 -1
J15 3
9 0
26 0
178 -1
J16 3
8 0
27 0
184 -1
J17 3
9 0
27 0
190 -1
J18 3
8 0
28 0
196 -1
J19 3
9 0
28 0
202 -1
J20 3
8 0
29 0
208 -1
J21 3
9 0
29 0
214 -1
J22 3
8 0
30 0
220 -1
J23 3
9 0
30 0
226 -1
J24 3
10 0
32 0
161 -1
J25 3
11 0
32 0
167 -1
J26 3
10 0
33 0
173 -1
J27 3
11 0
33 0
179 -1
J28 3
10 0
34 0
185 -1
J29 3
11 0
34 0
191 -1
J30 3
10 0
35 0
197 -1
J31 3
11 0
35 0
203 -1
J32 3
10 0
36 0
209 -1
J33 3
11 0
36 0
215 -1
J34 3
10 0
37 0
221 -1
J35 3
11 0
37 0
227 -1
J36 3
12 0
39 0
162 -1
J37 3
13 0
39 0
168 -1
J38 3
12 0
40 0
174 -1
J39 3
13 0
40 0
180 -1
J40 3
12 0
41 0
186 -1
J41 3
13 0
41 0
192 -1
J42 3
12 0
42 0
198 -1
J43 3
13 0
42 0
204 -1
J44 3
12 0
43 0
210 -1
J45 3
13 0
43 0
216 -1
J46 3
12 0
44 0
222 -1
J47 3
13 0
44 0
228 -1
J48 3
14 0
46 0
163 -1
J49 3
15 0
46 0
169 -1
J50 3
14 0
47 0
175 -1
J51 3
15 0
47 0
181 -1
J52 3
14 0
48 0
187 -1
J53 3
15 0
48 0
193 -1
J54 3
14 0
49 0
199 -1
J55 3
15 0
49 0
205 -1
J56 3
14 0
50 0
211 -1
J57 3
15 0
50 0
217 -1
J58 3
14 0
51 0
223 -1
J59 3
15 0
51 0
229 -1
J60 3
16 0
53 0
164 -1
J61 3
17 0
53 0
170 -1
J62 3
16 0
54 0
176 -1
J63 3
17 0
54 0
182 -1
J64 3
16 0
55 0
188 -1
J65 3
17 0
55 0
194 -1
J66 3
16 0
56 0
200 -1
J67 3
17 0
56 0
206 -1
J68 3
16 0
57 0
212 -1
J69 3
17 0
57 0
218 -1
J70 3
16 0
58 0
224 -1
J71 3
17 0
58 0
230 -1
J72 3
6 0
24 0
231 -1
J73 3
7 0
24 0
232 -1
J74 3
8 0
31 0
233 -1
J75 3
9 0
31 0
234 -1
J76 3
10 0
38 0
235 -1
J77 3
11 0
38 0
236 -1
J78 3
12 0
45 0
237 -1
J79 3
13 0
45 0
238 -1
J80 3
14 0
52 0
239 -1
J81 3
15 0
52 0
240 -1
J82 3
16 0
59 0
241 -1
J83 3
17 0
59 0
242 -1
J84 3
0 0
18 0
74 -1
J85 3
0 0
19 0
80 -1
J86 3
0 0
20 0
86 -1
J87 3
0 0
21 0
92 -1
J88 3
0 0
22 0
98 -1
J89 3
0 0
23 0
104 -1
J90 3
1 0
25 0
75 -1
J91 3
1 0
26 0
81 -1
J92 3
1 0
27 0
87 -1
J93 3
1 0
28 0
93 -1
J94 3
1 0
29 0
99 -1
J95 3
1 0
30 0
105 -1
J96 3
2 0
32 0
76 -1
J97 3
2 0
33 0
82 -1
J98 3
2 0
34 0
88 -1
J99 3
2 0
35 0
94 -1
J100 3
2 0
36 0
100 -1
J101 3
2 0
37 0
106 -1
J102 3
3 0
39 0
77 -1
J103 3
3 0
40 0
83 -1
J104 3
3 0
41 0
89 -1
J105 3
3 0
42 0
95 -1
J106 3
3 0
43 0
101 -1
J107 3
3 0
44 0
107 -1
J108 3
4 0
46 0
78 -1
J109 3
4 0
47 0
84 -1
J110 3
4 0
48 0
90 -1
J111 3
4 0
49 0
96 -1
J112 3
4 0
50 0
102 -1
J113 3
4 0
51 0
108 -1
J114 3
5 0
53 0
79 -1
J115 3
5 0
54 0
85 -1
J116 3
5 0
55 0
91 -1
J117 3
5 0
56 0
97 -1
J118 3
5 0
57 0
103 -1
J119 3
5 0
58 0
109 -1
J120 3
0 0
24 0
110 -1
J121 3
1 0
31 0
111 -1
J122 3
2 0
38 0
112 -1
J123 3
3 0
45 0
113 -1
J124 3
4 0
52 0
114 -1
J125 3
5 0
59 0
115 -1
J126 7
60 -1
61 -1
62 -1
63 -1
64 -1
65 -1
66 -1
J127 7
67 -1
68 -1
69 -1
70 -1
71 -1
72 -1
73 -1
J128 9
0 1
61 -1
68 -1
74 -1
75 -1
76 -1
77 -1
78 -1
79 -1
J129 9
1 1
62 -1
69 -1
80 -1
81 -1
82 -1
83 -1
84 -1
85 -1
J130 9
2 1
63 -1
70 -1
86 -1
87 -1
88 -1
89 -1
90 -1
91 -1
J131 9
3 1
64 -1
71 -1
92 -1
93 -1
94 -1
95 -1
96 -1
97 -1
J132 9
4 1
65 -1
72 -1
98 -1
99 -1
100 -1
101 -1
102 -1
103 -1
J133 9
5 1
66 -1
73 -1
104 -1
105 -1
106 -1
107 -1
108 -1
109 -1
J134 8
0 1
74 -1
80 -1
86 -1
92 -1
98 -1
104 -1
110 -1
J135 8
1 1
75 -1
81 -1
87 -1
93 -1
99 -1
105 -1
111 -1
J136 8
2 1
76 -1
82 -1
88 -1
94 -1
100 -1
106 -1
112 -1
J137 8
3 1
77 -1
83 -1
89 -1
95 -1
101 -1
107 -1
113 -1
J138 8
4 1
78 -1
84 -1
90 -1
96 -1
102 -1
108 -1
114 -1
J139 8
5 1
79 -1
85 -1
91 -1
97 -1
103 -1
109 -1
115 -1
J140 9
60 -1
67 -1
110 -1
111 -1
112 -1
113 -1
114 -1
115 -1
116 1
J141 7
117 -1
118 -1
119 -1
120 -1
121 -1
122 -1
123 -1
J142 7
124 -1
125 -1
126 -1
127 -1
128 -1
129 -1
130 -1
J143 7
131 -1
132 -1
133 -1
134 -1
135 -1
136 -1
137 -1
J144 7
138 -1
139 -1
140 -1
141 -1
142 -1
143 -1
144 -1
J145 2
118 -1
145 31500
J146 2
125 -1
145 105000
J147 2
119 -1
146 31500
J148 2
126 -1
146 105000
J149 2
120 -1
147 31500
J150 2
127 -1
147 105000
J151 2
121 -1
148 31500
J152 2
128 -1
148 105000
J153 2
122 -1
149 31500
J154 2
129 -1
149 105000
J155 2
123 -1
150 31500
J156 2
130 -1
150 105000
J157 2
132 -1
151 29700
J158 2
139 -1
151 37800
J159 2
133 -1
152 29700
J160 2
140 -1
152 37800
J161 2
134 -1
153 29700
J162 2
141 -1
153 37800
J163 2
135 -1
154 29700
J164 2
142 -1
154 37800
J165 2
136 -1
155 29700
J166 2
143 -1
155 37800
J167 2
137 -1
156 29700
J168 2
144 -1
156 37800
J169 2
117 -1
157 31500
J170 2
124 -1
157 105000
J171 2
131 -1
158 29700
J172 2
138 -1
158 37800
J173 2
61 -1
145 150
J174 2
62 -1
146 150
J175 2
63 -1
147 150
J176 2
64 -1
148 150
J177 2
65 -1
149 150
J178 2
66 -1
150 150
J179 2
68 -1
151 270
J180 2
69 -1
152 270
J181 2
70 -1
153 270
J182 2
71 -1
154 270
J183 2
72 -1
155 270
J184 2
73 -1
156 270
J185 2
60 -1
157 150
J186 2
67 -1
158 270
J187 7
145 1
146 1
147 1
148 1
149 1
150 1
157 1
J188 7
151 1
152 1
153 1
154 1
155 1
156 1
158 1
J189 9
0 -45
118 1
132 1
159 1
160 1
161 1
162 1
163 1
164 1
J190 9
0 -200
125 1
139 1
165 1
166 1
167 1
168 1
169 1
170 1
J191 9
1 -110
119 1
133 1
171 1
172 1
173 1
174 1
175 1
176 1
J192 9
1 -90
126 1
140 1
177 1
178 1
179 1
180 1
181 1
182 1
J193 9
2 -190
120 1
134 1
183 1
184 1
185 1
186 1
187 1
188 1
J194 9
2 -50
127 1
141 1
189 1
190 1
191 1
192 1
193 1
194 1
J195 9
3 -200
121 1
135 1
195 1
196 1
197 1
198 1
199 1
200 1
J196 9
3 -90
128 1
142 1
201 1
202 1
203 1
204 1
205 1
206 1
J197 9
4 -60
122 1
136 1
207 1
208 1
209 1
210 1
211 1
212 1
J198 9
4 -500
129 1
143 1
213 1
214 1
215 1
216 1
217 1
218 1
J199 9
5 -20
123 1
137 1
219 1
220 1
221 1
222 1
223 1
224 1
J200 9
5 -190
130 1
144 1
225 1
226 1
227 1
228 1
229 1
230 1
J201 9
6 -1
118 0.1
132 0.1
159 0.1
160 0.1
161 0.1
162 0.1
163 0.1
164 0.1
J202 9
7 -1
125 1
139 1
165 1
166 1
167 1
168 1
169 1
170 1
J203 9
8 -1
119 0.3
133 0.3
171 0.3
172 0.3
173 0.3
174 0.3
175 0.3
176 0.3
J204 9
9 -1
126 0.1
140 0.1
177 0.1
178 0.1
179 0.1
180 0.1
181 0.1
182 0.1
J205 9
10 -1
120 1
134 1
183 1
184 1
185 1
186 1
187 1
188 1
J206 9
11 -1
127 0.2
141 0.2
189 0.2
190 0.2
191 0.2
192 0.2
193 0.2
194 0.2
J207 9
12 -1
121 0.5
135 0.5
195 0.5
196 0.5
197 0.5
198 0.5
199 0.5
200 0.5
J208 9
13 -1
128 1
142 1
201 1
202 1
203 1
204 1
205 1
206 1
J209 9
14 -1
122 0.1
136 0.1
207 0.1
208 0.1
209 0.1
210 0.1
211 0.1
212 0.1
J210 9
15 -1
129 0.3
143 0.3
213 0.3
214 0.3
215 0.3
216 0.3
217 0.3
218 0.3
J211 9
16 -1
123 0.8
137 0.8
219 0.8
220 0.8
221 0.8
222 0.8
223 0.8
224 0.8
J212 9
17 -1
130 0.6
144 0.6
225 0.6
226 0.6
227 0.6
228 0.6
229 0.6
230 0.6
J213 8
6 1
159 -1
171 -1
183 -1
195 -1
207 -1
219 -1
231 -1
J214 8
7 1
165 -1
177 -1
189 -1
201 -1
213 -1
225 -1
232 -1
J215 8
8 1
160 -1
172 -1
184 -1
196 -1
208 -1
220 -1
233 -1
J216 8
9 1
166 -1
178 -1
190 -1
202 -1
214 -1
226 -1
234 -1
J217 8
10 1
161 -1
173 -1
185 -1
197 -1
209 -1
221 -1
235 -1
J218 8
11 1
167 -1
179 -1
191 -1
203 -1
215 -1
227 -1
236 -1
J219 8
12 1
162 -1
174 -1
186 -1
198 -1
210 -1
222 -1
237 -1
J220 8
13 1
168 -1
180 -1
192 -1
204 -1
216 -1
228 -1
238 -1
J221 8
14 1
163 -1
175 -1
187 -1
199 -1
211 -1
223 -1
239 -1
J222 8
15 1
169 -1
181 -1
193 -1
205 -1
217 -1
229 -1
240 -1
J223 8
16 1
164 -1
176 -1
188 -1
200 -1
212 -1
224 -1
241 -1
J224 8
17 1
170 -1
182 -1
194 -1
206 -1
218 -1
230 -1
242 -1
J225 7
18 1
19 1
20 1
21 1
22 1
23 1
24 1
J226 7
25 1
26 1
27 1
28 1
29 1
30 1
31 1
J227 7
32 1
33 1
34 1
35 1
36 1
37 1
38 1
J228 7
39 1
40 1
41 1
42 1
43 1
44 1
45 1
J229 7
46 1
47 1
48 1
49 1
50 1
51 1
52 1
J230 7
53 1
54 1
55 1
56 1
57 1
58 1
59 1
J231 9
116 -5
117 1
131 1
231 1
233 1
235 1
237 1
239 1
241 1
J232 9
116 -15
124 1
138 1
232 1
234 1
236 1
238 1
240 1
242 1
G0 6
0 1
1 1
2 1
3 1
4 1
5 1
